4 175 169 163 157 151 145 139 133 127 121 115 109 103 97 91 85 79 73 67 61 55 49 43 37 31 25 19 13 7 1 195 188 181 173 165 156 148 140 131 123 114 106 98 89 81 72 64 56 47 39 30 22 14 6 197 187 178 167 155 144 134 122 111 100 88 77 66 54 44 33 21 11 199 186 174 160 146 130 117 102 87 74 59 45 29 16 2 189 171 153 136 48 101 83 65 46 27 10 192 172 150 128 108 86 32 183 12 90 176 147 71 96 69 41 18 191 161 129 104 68 36 5 177 138 107 63 34 194 154 116 75 28 185 141 94 51 198 143 93 40 182 124 60 3 137 76 8 132 125 24 152 35 0 9 112 17 113 142 168 42 164 52 190 105 62 95 78 184 53 110 23 149 80 166 193 120 82 135 126 158 119 20 180 196 50 38 170 159 15 92 179 99 84 118 57 70 162 58 26 

